c colouring generated by benchmark framework
p edge 74 301
v 1 3
v 2 1
v 3 3
v 4 10
v 5 9
v 6 4
v 7 1
v 8 6
v 9 1
v 10 4
v 11 8
v 12 8
v 13 6
v 14 2
v 15 4
v 16 6
v 17 0
v 18 3
v 19 5
v 20 2
v 21 8
v 22 2
v 23 1
v 24 0
v 25 5
v 26 7
v 27 4
v 28 9
v 29 1
v 30 2
v 31 5
v 32 5
v 33 5
v 34 5
v 35 4
v 36 3
v 37 1
v 38 8
v 39 3
v 40 10
v 41 6
v 42 6
v 43 5
v 44 4
v 45 1
v 46 8
v 47 2
v 48 5
v 49 0
v 50 2
v 51 7
v 52 0
v 53 8
v 54 0
v 55 7
v 56 3
v 57 0
v 58 3
v 59 4
v 60 2
v 61 10
v 62 9
v 63 8
v 64 9
v 65 10
v 66 3
v 67 3
v 68 8
v 69 5
v 70 7
v 71 8
v 72 9
v 73 1
v 74 2
